20 95 
1 3 1
1 4 1
1 6 1
1 8 1
1 9 1
1 13 1
1 14 1
1 16 1
1 18 1
1 19 1
2 5 1
2 6 1
2 8 1
2 9 1
2 12 1
2 17 1
2 18 1
2 20 1
3 5 1
3 6 1
3 7 1
3 10 1
3 14 1
3 15 1
3 16 1
3 18 1
3 19 1
3 20 1
4 5 1
4 7 1
4 10 1
4 11 1
4 13 1
4 14 1
4 15 1
4 16 1
4 20 1
5 6 1
5 10 1
5 11 1
5 14 1
5 15 1
5 19 1
5 20 1
6 9 1
6 10 1
6 11 1
6 12 1
6 14 1
6 18 1
6 19 1
7 9 1
7 10 1
7 12 1
7 13 1
7 16 1
7 17 1
7 19 1
7 20 1
8 9 1
8 10 1
8 11 1
8 12 1
8 13 1
8 14 1
8 16 1
8 20 1
9 10 1
9 11 1
9 16 1
9 18 1
10 11 1
10 13 1
10 15 1
10 17 1
11 12 1
11 16 1
11 20 1
12 15 1
12 16 1
12 17 1
12 18 1
13 17 1
13 18 1
13 19 1
14 16 1
14 18 1
14 20 1
15 17 1
15 18 1
15 19 1
17 18 1
17 20 1
18 19 1
19 20 1
